p cnf 14 64
-1 2 4 0
-1 -4 -11 0
1 2 -3 0
12 -13 14 0
-2 8 12 0
2 3 -7 0
-2 -5 13 0
3 -4 -8 0
4 10 14 0
1 6 10 0
-2 -6 -10 0
3 7 8 0
-3 -7 -9 0
-9 -13 -14 0
5 -7 10 0
-8 11 13 0
-1 -3 8 0
1 -2 -7 0
3 -5 14 0
5 -6 11 0
4 -10 -13 0
2 -9 13 0
4 8 9 0
1 -4 9 0
3 -4 -10 0
-2 11 12 0
5 11 14 0
-9 -13 14 0
-2 -3 6 0
5 -10 -12 0
9 11 13 0
-1 -11 14 0
2 -9 -11 0
1 8 13 0
1 2 8 0
-4 7 -13 0
2 -4 11 0
-2 11 -12 0
-10 -11 12 0
1 -3 10 0
1 -8 -13 0
-2 -12 -13 0
1 -2 10 0
-2 -9 11 0
-4 -12 -13 0
2 -4 -13 0
5 -7 -9 0
-4 7 -8 0
-5 11 12 0
6 -7 13 0
-4 6 11 0
1 -2 12 0
9 11 -14 0
7 13 -14 0
2 8 13 0
-2 8 10 0
8 10 13 0
2 4 6 0
3 7 -8 0
4 5 10 0
1 -2 -13 0
1 -7 8 0
2 12 14 0
-6 9 -13 0
